NAME : amz2006.146348_113348.tour
COMMENT : Cost = 146348_113348
COMMENT : Found by LKH-AMZ [Keld Helsgaun] Sun May 11 13:37:36 2025
COMMENT : TW viol.: 0 #: 0
TYPE : TOUR
DIMENSION : 112
TOUR_SECTION
99
86
72
40
59
73
66
27
105
5
94
83
69
45
106
10
18
41
98
54
90
46
61
20
104
92
111
32
36
60
23
96
58
55
74
81
80
8
76
53
19
1
103
47
79
82
50
67
109
35
51
6
101
4
34
30
22
3
84
29
43
70
26
85
15
42
89
110
28
102
64
100
107
25
71
12
7
37
49
88
33
97
2
9
24
11
62
91
63
52
56
39
87
68
21
57
17
16
14
78
77
38
108
65
13
44
48
75
112
31
95
93
-1
EOF
